Normalized Data/p03_00_tsplib0_normalized_splitx10_0.vrp
NAME:p03_00_tsplib0_NORMALIZED_splitx10_
BEST_KNOWN: 0
COMMENT: 0
DIMENSION: 291
CAPACITY: 1000
EDGE_WEIGHT_FORMAT: FUNCTION
EDGE_WEIGHT_TYPE: EXACT_2D
NODE_COORD_SECTION
1 0.00000 0.00000
2 6 14
3 0 -18
4 0 -18
5 0 -18
6 20 10
7 20 10
8 20 -15
9 20 -15
10 20 -15
11 20 -15
12 20 -15
13 -20 -5
14 -20 -5
15 -20 -5
16 -20 -5
17 -10 -5
18 -15 15
19 -15 15
20 -25 8
21 -25 8
22 -25 8
23 -25 8
24 20 25
25 20 25
26 20 25
27 20 25
28 -5 25
29 -5 25
30 -5 25
31 -5 25
32 -15 30
33 -15 30
34 15 0
35 15 0
36 15 0
37 15 0
38 15 0
39 -5 -10
40 -5 -10
41 -20 -25
42 -5 -30
43 -5 -30
44 -5 -30
45 -5 -30
46 -25 -15
47 -25 -15
48 -25 -15
49 -25 -15
50 -25 -15
51 -30 -5
52 -15 5
53 -15 5
54 -20 25
55 -20 25
56 -20 25
57 -20 25
58 10 30
59 10 30
60 10 30
61 10 30
62 10 -15
63 10 -25
64 10 -25
65 10 -25
66 10 -25
67 10 -25
68 20 -30
69 20 -30
70 20 -30
71 20 -30
72 20 -30
73 30 0
74 30 -15
75 30 -15
76 30 -15
77 10 -5
78 10 -5
79 10 -5
80 10 -5
81 0 5
82 0 5
83 0 5
84 0 5
85 6 2
86 6 2
87 6 2
88 6 2
89 29 7
90 29 7
91 29 7
92 29 7
93 5 25
94 -4 17
95 -4 17
96 -4 17
97 -4 17
98 0 34
99 0 34
100 18 17
101 30 20
102 30 20
103 30 20
104 28 30
105 28 30
106 28 30
107 28 30
108 -33 25
109 -33 25
110 -15 -15
111 -15 -15
112 -15 -15
113 -15 -15
114 -30 -30
115 -30 -30
116 -30 -30
117 -30 -30
118 25 -23
119 25 -23
120 5 -10
121 5 -10
122 5 -10
123 5 -10
124 7 -28
125 7 -28
126 -11 -23
127 -11 -23
128 -12 -32
129 -12 -32
130 -12 -32
131 -24 -21
132 -24 -21
133 -24 -21
134 -24 -21
135 -24 -21
136 -29 3
137 -29 3
138 -29 3
139 -29 3
140 -27 21
141 -27 21
142 -27 21
143 -27 21
144 -22 17
145 -22 17
146 -22 17
147 -22 17
148 -22 17
149 -29 33
150 -29 33
151 12 12
152 12 12
153 14 23
154 -8 8
155 -8 8
156 -8 8
157 -8 8
158 2 -4
159 2 -4
160 2 -4
161 22 -6
162 22 -6
163 22 -6
164 22 -6
165 22 -6
166 28 -12
167 18 -23
168 18 -23
169 18 -23
170 -3 -23
171 -3 -23
172 -3 -23
173 1 -9
174 1 -9
175 1 -9
176 1 -9
177 1 -9
178 -14 -11
179 -14 -11
180 -14 -11
181 -14 -11
182 -14 -11
183 -18 -1
184 -23 -11
185 -23 -11
186 -11 23
187 -11 23
188 -11 23
189 -11 23
190 -11 23
191 -8 34
192 -20 42
193 -20 42
194 -20 42
195 -20 42
196 27 42
197 14 38
198 14 38
199 14 38
200 32 -30
201 32 -30
202 32 -30
203 21 4
204 21 4
205 21 4
206 21 4
207 21 4
208 2 12
209 2 12
210 2 12
211 2 21
212 2 21
213 22 33
214 22 33
215 22 33
216 12 -19
217 12 -19
218 12 -19
219 9 -18
220 9 -18
221 9 -18
222 9 -18
223 11 -22
224 11 -22
225 11 -22
226 11 -22
227 14 -24
228 14 -24
229 14 -24
230 14 -24
231 14 -24
232 14 7
233 14 7
234 18 8
235 18 8
236 18 8
237 26 17
238 22 13
239 22 13
240 21 2
241 21 2
242 21 2
243 20 19
244 20 19
245 20 19
246 20 19
247 -20 12
248 -20 12
249 -20 12
250 -20 12
251 -21 2
252 -24 -4
253 -24 -4
254 -24 -4
255 -19 -13
256 -31 -17
257 -31 -17
258 -31 -17
259 -31 -17
260 -7 -17
261 -7 -17
262 -7 -17
263 -7 -17
264 -9 17
265 -9 17
266 -9 17
267 -9 17
268 -9 0
269 -9 0
270 -9 0
271 -4 32
272 -13 -13
273 -17 -11
274 -17 -11
275 -9 -8
276 -9 -8
277 -9 -8
278 -9 -8
279 -10 -11
280 -13 -8
281 -10 -14
282 -10 -14
283 -16 -14
284 -15 -9
285 -15 -9
286 -15 -9
287 -15 -9
288 -17 -17
289 -17 -17
290 -17 -17
291 -17 -17
DEMAND_SECTION
1 0
2 50
3 10
4 10
5 10
6 50
7 10
8 50
9 10
10 10
11 10
12 10
13 100
14 10
15 10
16 10
17 10
18 10
19 10
20 10
21 10
22 10
23 10
24 50
25 10
26 10
27 10
28 50
29 10
30 10
31 10
32 50
33 10
34 50
35 10
36 10
37 10
38 10
39 100
40 10
41 100
42 10
43 10
44 10
45 10
46 50
47 10
48 10
49 10
50 10
51 10
52 50
53 10
54 50
55 10
56 10
57 10
58 10
59 10
60 10
61 10
62 50
63 50
64 10
65 10
66 10
67 10
68 100
69 10
70 10
71 10
72 10
73 10
74 10
75 10
76 10
77 50
78 10
79 10
80 10
81 50
82 10
83 10
84 10
85 50
86 10
87 10
88 10
89 10
90 10
91 10
92 10
93 100
94 100
95 10
96 10
97 10
98 100
99 10
100 50
101 50
102 10
103 10
104 10
105 10
106 10
107 10
108 10
109 10
110 10
111 10
112 10
113 10
114 50
115 10
116 10
117 10
118 100
119 50
120 10
121 10
122 10
123 10
124 10
125 10
126 10
127 10
128 10
129 10
130 10
131 50
132 10
133 10
134 10
135 10
136 50
137 10
138 10
139 10
140 100
141 10
142 10
143 10
144 100
145 50
146 10
147 10
148 10
149 100
150 50
151 50
152 10
153 50
154 10
155 10
156 10
157 10
158 50
159 10
160 10
161 50
162 10
163 10
164 10
165 10
166 10
167 10
168 10
169 10
170 10
171 10
172 10
173 50
174 10
175 10
176 10
177 10
178 100
179 10
180 10
181 10
182 10
183 10
184 50
185 10
186 50
187 10
188 10
189 10
190 10
191 50
192 10
193 10
194 10
195 10
196 100
197 100
198 10
199 10
200 100
201 10
202 10
203 100
204 50
205 10
206 10
207 10
208 10
209 10
210 10
211 10
212 10
213 50
214 10
215 10
216 100
217 10
218 10
219 10
220 10
221 10
222 10
223 10
224 10
225 10
226 10
227 50
228 10
229 10
230 10
231 10
232 50
233 10
234 50
235 10
236 10
237 10
238 100
239 10
240 10
241 10
242 10
243 100
244 10
245 10
246 10
247 50
248 10
249 10
250 10
251 50
252 10
253 10
254 10
255 200
256 100
257 50
258 10
259 10
260 100
261 10
262 10
263 10
264 10
265 10
266 10
267 10
268 50
269 10
270 10
271 10
272 10
273 100
274 10
275 100
276 10
277 10
278 10
279 100
280 50
281 50
282 10
283 50
284 10
285 10
286 10
287 10
288 50
289 10
290 10
291 10
DEPOT_SECTION
1
-1
EOF