Normalized Data/p03_00_tsplib0_normalized_splitx10_0.sol
290 -3 4 2 44 43 41 42 127 128 129 40 131 134 130 133 132 116 113 114 115 257 258 255 256 46 45 48 47 49 184 183 254 272 273 -16 279 285 284 283 286 178 180 179 181 177 282 290 288 287 289 112 109 110 111 271 281 280 278 274 276 275 277 -37 33 34 35 36 202 204 206 203 205 240 241 239 162 164 163 161 160 72 90 89 88 91 102 100 101 236 237 238 6 5 234 235 233 232 231 84 86 87 85 -39 38 262 261 260 259 125 126 169 171 170 124 123 62 66 65 63 64 223 222 225 224 216 217 215 61 122 121 119 120 158 159 157 -76 77 79 78 7 11 9 8 10 165 73 74 75 117 118 199 200 201 71 67 70 69 68 168 166 167 229 226 228 230 227 218 220 219 221 172 174 176 175 173 -81 82 83 80 156 155 154 153 18 17 143 146 145 147 144 247 246 249 248 22 21 19 20 135 138 136 137 50 253 252 251 13 12 15 14 182 250 51 52 267 269 268 -96 93 94 95 27 29 28 30 98 97 270 190 32 31 192 194 193 191 149 148 108 107 142 140 139 141 56 54 53 55 186 188 185 189 187 263 264 265 266 -151 150 99 244 242 243 245 152 25 26 23 24 104 103 106 105 214 213 212 195 198 196 197 59 58 60 57 92 211 210 1 209 207 208 0 





OBJ=
820.937
BEST_KNOWN=
0.000